JulietBench/Juliet_Based_Patch_Bench/linux/CWE-190-Integer-Overflow-or-Wraparound/CVE_2019_11477_3b4929f65b0d8249f19a50245cd88ed1a2f78cff/solvertcp_shift_skb_data_Snippet_patch1.smt2
; benchmark generated from python API
(set-info :status unknown)
(declare-fun R () (_ BitVec 32))
(declare-fun rsi () (_ BitVec 64))
(declare-fun rcx () (_ BitVec 64))
(declare-fun r8 () (_ BitVec 64))
(declare-fun rdi () (_ BitVec 64))
(declare-fun rdx () (_ BitVec 64))
(assert
 (let (($x157 (= (_ bv1 32) R)))
 (let ((?x8 ((_ extract 31 0) rsi)))
 (let ((?x12 ((_ extract 31 0) rcx)))
 (let ((?x18 (bvadd ?x12 ?x8)))
 (let (($x122 (bvslt (_ bv524279 32) ?x18)))
 (let (($x245 (and $x122 $x157)))
 (let (($x106 (bvsge (_ bv524279 32) ?x18)))
 (let ((?x14 ((_ extract 31 0) r8)))
 (let ((?x6 ((_ extract 31 0) rdi)))
 (let ((?x147 (bvadd ?x6 ?x14)))
 (let (($x155 (bvslt (_ bv65535 32) ?x147)))
 (let (($x152 (and $x155 $x106 $x157)))
 (let (($x149 (bvsge (_ bv65535 32) ?x147)))
 (let ((?x31 (bvadd (bvadd (bvadd ?x14 ?x8) ((_ extract 31 0) rdx)) ?x12)))
 (let (($x35 (= (_ bv0 32) ?x31)))
 (let (($x151 (and $x35 $x149 $x106 $x157)))
 (let (($x161 (= R ?x6)))
 (let (($x79 (and (distinct (_ bv0 32) ?x31) true)))
 (let (($x154 (and $x79 $x149 $x106 $x161)))
 (let (($x244 (or $x154 $x151 $x152 $x245)))
 (let (($x241 (not $x244)))
 (let (($x153 (and $x35 $x157)))
 (let (($x163 (and $x79 $x161)))
 (let (($x158 (or $x163 $x153)))
 (let (($x219 (not $x158)))
 (let (($x234 (and $x219 $x241)))
 (let (($x225 (and $x158 $x244)))
 (let (($x229 (or $x225 $x234)))
 (not $x229))))))))))))))))))))))))))))))
(check-sat)
